(set-logic QF_S)
(declare-fun var0 () String)
(declare-fun var1 () String)
(declare-fun var2 () String)
(declare-fun var3 () String)
(declare-fun var4 () String)
(declare-fun var5 () String)
(declare-fun var6 () String)
(declare-fun var7 () String)
(declare-fun var8 () String)
(declare-fun var9 () String)
(declare-fun var10 () String)
(declare-fun var11 () String)
(declare-fun var12 () String)
(declare-fun var13 () String)
(declare-fun var14 () String)
(declare-fun var15 () String)
(declare-fun var16 () String)
(declare-fun var17 () String)
(declare-fun var18 () String)
(declare-fun var19 () String)
(declare-fun var20 () String)
(declare-fun var21 () String)
(declare-fun var22 () String)
(declare-fun var23 () String)
(declare-fun var24 () String)
(declare-fun var25 () String)
(declare-fun var26 () String)
(declare-fun var27 () String)
(declare-fun var28 () String)
(declare-fun var29 () String)
(declare-fun var30 () String)
(declare-fun var31 () String)
(declare-fun var32 () String)
(declare-fun var33 () String)
(declare-fun var34 () String)
(declare-fun var35 () String)
(declare-fun var36 () String)
(declare-fun var37 () String)
(declare-fun var38 () String)
(declare-fun var39 () String)
(declare-fun var40 () String)
(declare-fun var41 () String)
(declare-fun var42 () String)
(declare-fun var43 () String)
(declare-fun var44 () String)
(declare-fun var45 () String)
(declare-fun var46 () String)
(declare-fun var47 () String)
(declare-fun var48 () String)
(declare-fun var49 () String)
(declare-fun var50 () String)
(declare-fun var51 () String)
(declare-fun var52 () String)
(declare-fun var53 () String)
(declare-fun var54 () String)
(declare-fun var55 () String)
(declare-fun var56 () String)
(declare-fun var57 () String)
(declare-fun var58 () String)
(declare-fun var59 () String)
(declare-fun var60 () String)
(assert (= var0 (str.++ var1 var2)))
(assert (= var2 (str.++ var3 var4)))
(assert (= var4 (str.++ var5 var6)))
(assert (= var6 (str.++ var7 var8)))
(assert (= var8 (str.++ var9 var10)))
(assert (= var10 (str.++ var11 var12)))
(assert (= var12 (str.++ var13 var14)))
(assert (= var14 (str.++ var15 var16)))
(assert (= var16 (str.++ var17 var18)))
(assert (= var18 (str.++ var19 var20)))
(assert (= var20 (str.++ var21 var22)))
(assert (= var22 (str.++ var23 var24)))
(assert (= var24 (str.++ var25 var26)))
(assert (= var26 (str.++ var27 var28)))
(assert (= var28 (str.++ var29 var30)))
(assert (= var30 (str.++ var31 var32)))
(assert (= var32 (str.++ var33 var34)))
(assert (= var34 (str.++ var35 var36)))
(assert (= var36 (str.++ var37 var38)))
(assert (= var38 (str.++ var39 var40)))
(assert (= var40 (str.++ var41 var42)))
(assert (= var42 (str.++ var43 var44)))
(assert (= var44 (str.++ var45 var46)))
(assert (= var46 (str.++ var47 var48)))
(assert (= var48 (str.++ var49 var50)))
(assert (= var50 (str.++ var51 var52)))
(assert (= var52 (str.++ var53 var54)))
(assert (= var54 (str.++ var55 var56)))
(assert (= var56 (str.++ var57 var58)))
(assert (= var58 (str.++ var59 var60)))
(assert (= var0 "solution"))
(assert (= "A" (str.at var39 688)))
(assert (= "1" (str.at var21 688)))
(assert (= "L" (str.at var60 602)))
(assert (= "[" (str.at var43 605)))
(assert (= ":" (str.at var44 187)))
(assert (= "I" (str.at var20 804)))
(assert (= "A" (str.at var51 52)))
(assert (= "P" (str.at var35 78)))
(assert (= "!" (str.at var24 24)))
(assert (= "n" (str.at var57 972)))
(assert (= "e" (str.at var58 866)))
(assert (= "2" (str.at var60 369)))
(assert (= "r" (str.at var8 594)))
(assert (= "u" (str.at var0 653)))
(assert (= "/" (str.at var54 757)))
(assert (= "j" (str.at var10 670)))
(assert (= "O" (str.at var29 870)))
(assert (= "T" (str.at var16 901)))
(assert (= "L" (str.at var48 599)))
(assert (= "h" (str.at var41 602)))
(assert (= "v" (str.at var57 831)))
(assert (= "n" (str.at var49 310)))
(assert (= "%" (str.at var43 417)))
(assert (= "1" (str.at var45 395)))
(assert (= "<" (str.at var40 696)))
(assert (= "E" (str.at var48 21)))
(assert (= "`" (str.at var3 52)))
(assert (= "M" (str.at var12 347)))
(assert (= "<" (str.at var11 785)))
(assert (= "R" (str.at var55 555)))
(assert (= "r" (str.at var51 266)))
(assert (= "," (str.at var16 236)))
(assert (= "Q" (str.at var13 662)))
(assert (= "?" (str.at var55 994)))
(assert (= "7" (str.at var59 180)))
(assert (= "e" (str.at var24 226)))
(assert (= "p" (str.at var43 783)))
(assert (= "`" (str.at var13 383)))
(assert (= "o" (str.at var3 189)))
(assert (= "+" (str.at var33 554)))
(assert (= "'" (str.at var33 371)))
(assert (= "^" (str.at var29 372)))
(assert (= "'" (str.at var5 593)))
(assert (= "]" (str.at var41 214)))
(assert (= "J" (str.at var10 659)))
(assert (= "P" (str.at var29 16)))
(assert (= "@" (str.at var26 19)))
(assert (= "x" (str.at var50 47)))
(assert (= "}" (str.at var45 96)))
(assert (= "`" (str.at var6 613)))
(assert (= "r" (str.at var35 290)))
(assert (= """" (str.at var55 151)))
(assert (= "@" (str.at var22 427)))
(assert (= "_" (str.at var23 454)))
(assert (= "l" (str.at var45 81)))
(assert (= "=" (str.at var2 687)))
(assert (= "," (str.at var37 432)))
(assert (= "5" (str.at var58 108)))
(assert (= "|" (str.at var13 496)))
(assert (= "9" (str.at var9 732)))
(assert (= "p" (str.at var34 731)))
(assert (= "*" (str.at var14 227)))
(assert (= "B" (str.at var40 14)))
(assert (= "l" (str.at var0 239)))
(assert (= "j" (str.at var19 761)))
(assert (= "T" (str.at var37 507)))
(assert (= "s" (str.at var46 670)))
(assert (= "D" (str.at var30 959)))
(assert (= "i" (str.at var36 346)))
(assert (= "n" (str.at var40 38)))
(assert (= "E" (str.at var26 152)))
(assert (= "R" (str.at var58 14)))
(assert (= "l" (str.at var37 57)))
(assert (= "m" (str.at var16 266)))
(assert (= "U" (str.at var8 631)))
(assert (= "~" (str.at var44 840)))
(assert (= "/" (str.at var6 173)))
(assert (= "3" (str.at var17 600)))
(assert (= "d" (str.at var10 261)))
(assert (= "\\" (str.at var37 554)))
(assert (= "?" (str.at var3 778)))
(assert (= "a" (str.at var11 915)))
(assert (= "'" (str.at var40 289)))
(assert (= ":" (str.at var6 722)))
(assert (= """" (str.at var60 138)))
(assert (= "U" (str.at var58 540)))
(assert (= "!" (str.at var35 970)))
(assert (= "c" (str.at var13 211)))
(assert (= "R" (str.at var49 415)))
(assert (= "N" (str.at var47 657)))
(assert (= """" (str.at var23 763)))
(assert (= """" (str.at var58 852)))
(assert (= ";" (str.at var52 588)))
(assert (= "/" (str.at var15 159)))
(assert (= "." (str.at var2 564)))
(assert (= "(" (str.at var53 574)))
(assert (= "N" (str.at var51 736)))
(assert (= "N" (str.at var11 563)))
(assert (= "$" (str.at var33 606)))
(assert (= "c" (str.at var22 528)))
(assert (= "7" (str.at var40 593)))
(assert (= ">" (str.at var39 200)))
(assert (= "=" (str.at var5 940)))
(assert (= "V" (str.at var20 407)))
(assert (= "d" (str.at var5 176)))
(assert (= """" (str.at var55 297)))
(assert (= "n" (str.at var5 255)))
(assert (= "h" (str.at var23 20)))
(assert (= "[" (str.at var14 816)))
(assert (= ">" (str.at var59 112)))
(assert (= "7" (str.at var4 220)))
(assert (= "t" (str.at var46 987)))
(assert (= "G" (str.at var49 72)))
(assert (= "c" (str.at var51 277)))
(assert (= "i" (str.at var45 833)))
(assert (= "1" (str.at var34 236)))
(assert (= "5" (str.at var46 15)))
(assert (= "7" (str.at var14 438)))
(assert (= "&" (str.at var47 494)))
(assert (= "@" (str.at var54 353)))
(assert (= "Z" (str.at var14 668)))
(assert (= "s" (str.at var53 208)))
(assert (= "0" (str.at var51 707)))
(assert (= "," (str.at var14 653)))
(assert (= "." (str.at var60 280)))
(assert (= "!" (str.at var39 906)))
(assert (= "8" (str.at var26 250)))
(assert (= "G" (str.at var41 513)))
(assert (= "v" (str.at var12 671)))
(assert (= "L" (str.at var35 389)))
(assert (= ":" (str.at var8 328)))
(assert (= "&" (str.at var50 413)))
(assert (= "6" (str.at var24 490)))
(assert (= "t" (str.at var21 357)))
(assert (= "w" (str.at var30 599)))
(assert (= "(" (str.at var46 677)))
(assert (= "]" (str.at var4 364)))
(assert (= "6" (str.at var5 13)))
(assert (= "X" (str.at var56 555)))
(assert (= "i" (str.at var45 690)))
(assert (= "p" (str.at var50 214)))
(assert (= "Z" (str.at var22 201)))
(assert (= "t" (str.at var3 844)))
(assert (= "?" (str.at var35 303)))
(assert (= "f" (str.at var42 276)))
(assert (= "B" (str.at var1 172)))
(assert (= ")" (str.at var1 704)))
(assert (= "$" (str.at var60 194)))
(assert (= "7" (str.at var6 24)))
(assert (= "2" (str.at var44 608)))
(assert (= "_" (str.at var59 959)))
(assert (= "w" (str.at var52 96)))
(assert (= "0" (str.at var28 994)))
(assert (= "A" (str.at var10 692)))
(assert (= "<" (str.at var44 799)))
(assert (= "z" (str.at var51 407)))
(assert (= "|" (str.at var36 187)))
(assert (= """" (str.at var60 941)))
(assert (= """" (str.at var31 865)))
(assert (= "q" (str.at var42 666)))
(assert (= "f" (str.at var47 319)))
(assert (= "}" (str.at var15 432)))
(assert (= "`" (str.at var51 663)))
(assert (= ";" (str.at var13 325)))
(assert (= "E" (str.at var36 477)))
(assert (= "b" (str.at var41 712)))
(assert (= "@" (str.at var8 75)))
(assert (= "p" (str.at var25 80)))
(assert (= "m" (str.at var3 180)))
(assert (= "v" (str.at var12 315)))
(assert (= "c" (str.at var16 25)))
(assert (= "t" (str.at var33 999)))
(assert (= "Y" (str.at var25 606)))
(assert (= "%" (str.at var39 597)))
(assert (= "H" (str.at var49 558)))
(assert (= "`" (str.at var39 687)))
(assert (= "|" (str.at var26 170)))
(assert (= "X" (str.at var58 328)))
(assert (= "c" (str.at var1 98)))
(assert (= "'" (str.at var20 191)))
(assert (= ">" (str.at var16 431)))
(assert (= "z" (str.at var13 817)))
(assert (= "}" (str.at var39 554)))
(assert (= "u" (str.at var24 637)))
(assert (= "G" (str.at var47 772)))
(assert (= "~" (str.at var25 152)))
(assert (= "O" (str.at var33 635)))
(assert (= ">" (str.at var32 81)))
(assert (= "a" (str.at var42 157)))
(assert (= "U" (str.at var57 94)))
(assert (= "1" (str.at var14 734)))
(assert (= "B" (str.at var14 654)))
(assert (= "|" (str.at var55 547)))
(assert (= "`" (str.at var45 962)))
(assert (= "w" (str.at var52 697)))
(assert (= "G" (str.at var27 512)))
(assert (= "n" (str.at var14 358)))
(assert (= "M" (str.at var49 832)))
(assert (= "e" (str.at var27 356)))
(assert (= "|" (str.at var21 524)))
(assert (= "%" (str.at var57 876)))
(assert (= "S" (str.at var22 736)))
(assert (= "6" (str.at var0 666)))
(assert (= "|" (str.at var0 377)))
(assert (= ">" (str.at var8 676)))
(assert (= "U" (str.at var10 754)))
(assert (= "#" (str.at var22 173)))
(assert (= "n" (str.at var24 2)))
(assert (= "s" (str.at var38 980)))
(assert (= "[" (str.at var18 933)))
(assert (= "%" (str.at var42 193)))
(assert (= "t" (str.at var51 586)))
(assert (= "P" (str.at var4 730)))
(assert (= "E" (str.at var21 156)))
(assert (= "<" (str.at var14 273)))
(assert (= "i" (str.at var28 229)))
(assert (= "x" (str.at var46 519)))
(assert (= ">" (str.at var41 307)))
(assert (= "}" (str.at var57 73)))
(assert (= "*" (str.at var37 826)))
(assert (= "|" (str.at var48 406)))
(assert (= "h" (str.at var41 550)))
(assert (= "9" (str.at var16 391)))
(assert (= ")" (str.at var32 207)))
(assert (= "-" (str.at var1 296)))
(assert (= "6" (str.at var56 390)))
(assert (= "J" (str.at var26 539)))
(assert (= "|" (str.at var60 35)))
(assert (= "u" (str.at var29 793)))
(assert (= "+" (str.at var44 686)))
(assert (= "P" (str.at var30 347)))
(assert (= "?" (str.at var21 977)))
(assert (= "h" (str.at var51 352)))
(assert (= "j" (str.at var33 104)))
(assert (= "}" (str.at var4 835)))
(assert (= "3" (str.at var45 524)))
(assert (= "c" (str.at var29 930)))
(assert (= "p" (str.at var29 484)))
(assert (= "/" (str.at var23 130)))
(assert (= "m" (str.at var22 657)))
(assert (= "b" (str.at var27 406)))
(assert (= ")" (str.at var22 431)))
(assert (= "H" (str.at var33 405)))
(assert (= "I" (str.at var37 338)))
(assert (= "G" (str.at var0 438)))
(assert (= "?" (str.at var13 397)))
(assert (= "+" (str.at var46 841)))
(assert (= "8" (str.at var45 882)))
(assert (= "T" (str.at var30 604)))
(assert (= "(" (str.at var49 220)))
(assert (= "p" (str.at var0 441)))
(assert (= "2" (str.at var21 406)))
(assert (= "0" (str.at var23 122)))
(assert (= "G" (str.at var45 877)))
(assert (= "n" (str.at var36 985)))
(assert (= "l" (str.at var7 667)))
(assert (= "/" (str.at var7 143)))
(assert (= "w" (str.at var28 238)))
(assert (= "D" (str.at var59 124)))
(assert (= "." (str.at var6 159)))
(assert (= "|" (str.at var42 921)))
(assert (= "x" (str.at var18 188)))
(assert (= "a" (str.at var43 928)))
(assert (= ";" (str.at var24 232)))
(assert (= "B" (str.at var11 69)))
(assert (= "X" (str.at var17 620)))
(assert (= "7" (str.at var14 364)))
(assert (= "?" (str.at var38 656)))
(assert (= "Z" (str.at var16 361)))
(assert (= "v" (str.at var7 345)))
(assert (= "P" (str.at var49 4)))
(assert (= "{" (str.at var3 168)))
(assert (= "R" (str.at var16 463)))
(assert (= "#" (str.at var32 92)))
(assert (= "]" (str.at var42 715)))
(assert (= "]" (str.at var26 760)))
(assert (= """" (str.at var34 422)))
(assert (= "M" (str.at var30 498)))
(assert (= "~" (str.at var5 448)))
(assert (= "i" (str.at var22 455)))
(assert (= "(" (str.at var59 894)))
(assert (= "l" (str.at var54 472)))
(assert (= "U" (str.at var51 561)))
(assert (= "S" (str.at var12 690)))
(assert (= "<" (str.at var57 304)))
(assert (= "Y" (str.at var2 335)))
(assert (= "7" (str.at var42 972)))
(assert (= "6" (str.at var51 947)))
(assert (= "i" (str.at var27 9)))
(assert (= "V" (str.at var55 732)))
(assert (= "0" (str.at var55 573)))
(assert (= ">" (str.at var2 906)))
(assert (= ";" (str.at var33 403)))
(assert (= "l" (str.at var35 452)))
(assert (= "/" (str.at var30 733)))
(assert (= "*" (str.at var42 880)))
(assert (= "+" (str.at var6 310)))
(assert (= "k" (str.at var27 811)))
(assert (= "9" (str.at var53 679)))
(assert (= "#" (str.at var25 765)))
(assert (= "B" (str.at var59 81)))
(assert (= "P" (str.at var49 971)))
(assert (= "_" (str.at var1 786)))
(assert (= "Q" (str.at var57 295)))
(assert (= "I" (str.at var33 953)))
(assert (= "w" (str.at var36 280)))
(assert (= "g" (str.at var53 943)))
(assert (= "C" (str.at var6 823)))
(assert (= ">" (str.at var7 826)))
(assert (= "e" (str.at var60 210)))
(assert (= "u" (str.at var39 188)))
(assert (= "K" (str.at var2 440)))
(assert (= "j" (str.at var38 729)))
(assert (= "E" (str.at var13 941)))
(assert (= "h" (str.at var52 39)))
(assert (= "i" (str.at var4 857)))
(assert (= "|" (str.at var19 857)))
(assert (= "x" (str.at var39 806)))
(assert (= "c" (str.at var23 499)))
(assert (= "V" (str.at var49 851)))
(assert (= "U" (str.at var54 471)))
(assert (= "1" (str.at var60 530)))
(assert (= "=" (str.at var20 288)))
(assert (= "G" (str.at var5 100)))
(assert (= "!" (str.at var26 189)))
(assert (= "m" (str.at var14 546)))
(assert (= "#" (str.at var55 909)))
(assert (= "f" (str.at var46 61)))
(assert (= "v" (str.at var40 447)))
(assert (= "!" (str.at var8 689)))
(assert (= "D" (str.at var23 161)))
(assert (= "R" (str.at var14 122)))
(assert (= "^" (str.at var59 637)))
(assert (= "&" (str.at var33 620)))
(assert (= "?" (str.at var38 299)))
(assert (= "x" (str.at var30 420)))
(assert (= "+" (str.at var47 623)))
(assert (= "Y" (str.at var31 88)))
(assert (= "0" (str.at var9 675)))
(assert (= "O" (str.at var46 550)))
(assert (= "1" (str.at var43 461)))
(assert (= "(" (str.at var0 904)))
(assert (= "h" (str.at var6 703)))
(assert (= "1" (str.at var30 280)))
(assert (= "X" (str.at var8 197)))
(assert (= "[" (str.at var23 800)))
(assert (= "^" (str.at var52 391)))
(assert (= "Y" (str.at var40 879)))
(assert (= "8" (str.at var53 629)))
(assert (= "}" (str.at var21 730)))
(assert (= "a" (str.at var54 951)))
(assert (= "u" (str.at var40 693)))
(assert (= "a" (str.at var60 59)))
(assert (= "Y" (str.at var32 442)))
(assert (= "`" (str.at var53 965)))
(assert (= "?" (str.at var18 581)))
(assert (= "Y" (str.at var35 504)))
(assert (= "f" (str.at var16 3)))
(assert (= "z" (str.at var51 205)))
(assert (= "j" (str.at var26 509)))
(assert (= "t" (str.at var37 194)))
(assert (= "8" (str.at var25 442)))
(assert (= "M" (str.at var11 355)))
(assert (= "`" (str.at var26 470)))
(assert (= "5" (str.at var37 972)))
(assert (= "d" (str.at var37 169)))
(assert (= "+" (str.at var26 843)))
(assert (= "=" (str.at var32 91)))
(assert (= "." (str.at var60 206)))
(assert (= "+" (str.at var5 3)))
(assert (= "0" (str.at var37 189)))
(assert (= "U" (str.at var1 18)))
(assert (= "c" (str.at var30 243)))
(assert (= "|" (str.at var46 839)))
(assert (= "w" (str.at var52 156)))
(assert (= "{" (str.at var37 174)))
(assert (= "J" (str.at var12 529)))
(assert (= "#" (str.at var22 998)))
(assert (= "7" (str.at var4 519)))
(assert (= "p" (str.at var53 384)))
(assert (= "8" (str.at var38 184)))
(assert (= "x" (str.at var16 695)))
(assert (= "f" (str.at var22 687)))
(assert (= "6" (str.at var6 123)))
(assert (= "b" (str.at var56 400)))
(assert (= "l" (str.at var13 754)))
(assert (= "B" (str.at var17 125)))
(assert (= "t" (str.at var56 29)))
(assert (= "s" (str.at var44 52)))
(assert (= "3" (str.at var32 454)))
(assert (= "(" (str.at var8 80)))
(assert (= ";" (str.at var13 571)))
(assert (= "." (str.at var49 392)))
(assert (= "d" (str.at var5 809)))
(assert (= "0" (str.at var20 597)))
(assert (= "9" (str.at var19 850)))
(assert (= "\\" (str.at var23 553)))
(assert (= "B" (str.at var34 238)))
(assert (= "E" (str.at var31 755)))
(assert (= "!" (str.at var57 986)))
(assert (= "r" (str.at var45 975)))
(assert (= "U" (str.at var16 877)))
(assert (= "k" (str.at var41 26)))
(assert (= "'" (str.at var24 539)))
(assert (= "u" (str.at var4 125)))
(assert (= "L" (str.at var51 958)))
(assert (= "8" (str.at var60 984)))
(assert (= "W" (str.at var43 522)))
(assert (= "-" (str.at var58 227)))
(assert (= "2" (str.at var60 836)))
(assert (= "D" (str.at var57 361)))
(assert (= "8" (str.at var2 538)))
(assert (= "m" (str.at var5 334)))
(assert (= "g" (str.at var54 365)))
(assert (= ";" (str.at var26 581)))
(assert (= "C" (str.at var2 928)))
(assert (= "," (str.at var22 619)))
(assert (= "b" (str.at var50 341)))
(assert (= "2" (str.at var34 298)))
(assert (= "3" (str.at var58 702)))
(assert (= "+" (str.at var13 533)))
(assert (= "x" (str.at var17 26)))
(assert (= "w" (str.at var42 166)))
(assert (= "O" (str.at var48 281)))
(assert (= "," (str.at var25 720)))
(assert (= ":" (str.at var10 966)))
(assert (= "I" (str.at var60 980)))
(assert (= "v" (str.at var21 848)))
(assert (= "U" (str.at var20 262)))
(assert (= "U" (str.at var2 553)))
(assert (= "i" (str.at var28 194)))
(assert (= "0" (str.at var5 386)))
(assert (= "L" (str.at var54 628)))
(assert (= "A" (str.at var22 450)))
(assert (= "X" (str.at var38 715)))
(assert (= "T" (str.at var43 891)))
(assert (= "b" (str.at var53 986)))
(assert (= "e" (str.at var46 558)))
(assert (= ")" (str.at var26 424)))
(assert (= "u" (str.at var8 461)))
(assert (= "^" (str.at var18 696)))
(assert (= "B" (str.at var31 896)))
(assert (= "~" (str.at var14 626)))
(assert (= "(" (str.at var51 428)))
(assert (= "#" (str.at var13 265)))
(assert (= "]" (str.at var49 692)))
(assert (= "2" (str.at var34 866)))
(assert (= "B" (str.at var39 450)))
(assert (= "Q" (str.at var22 409)))
(assert (= "c" (str.at var39 281)))
(assert (= "~" (str.at var14 210)))
(assert (= "}" (str.at var30 326)))
(assert (= "T" (str.at var55 676)))
(assert (= "O" (str.at var54 947)))
(assert (= "W" (str.at var16 277)))
(assert (= "U" (str.at var47 24)))
(assert (= "." (str.at var37 78)))
(assert (= "f" (str.at var15 956)))
(assert (= "V" (str.at var49 414)))
(assert (= "H" (str.at var37 164)))
(assert (= "#" (str.at var0 794)))
(assert (= "Y" (str.at var13 232)))
(assert (= "&" (str.at var38 997)))
(assert (= "/" (str.at var46 691)))
(assert (= "K" (str.at var22 719)))
(assert (= "1" (str.at var7 818)))
(assert (= "G" (str.at var14 385)))
(assert (= "Q" (str.at var27 559)))
(assert (= "q" (str.at var60 80)))
(assert (= "7" (str.at var47 896)))
(assert (= "M" (str.at var21 808)))
(assert (= "6" (str.at var38 900)))
(assert (= "P" (str.at var14 720)))
(assert (= "`" (str.at var44 181)))
(assert (= "D" (str.at var29 521)))
(assert (= "K" (str.at var39 827)))
(assert (= "<" (str.at var33 611)))
(assert (= "[" (str.at var26 516)))
(assert (= "]" (str.at var11 991)))
(assert (= "_" (str.at var20 298)))
(assert (= "]" (str.at var14 343)))
(assert (= "0" (str.at var16 225)))
(assert (= "w" (str.at var42 812)))
(assert (= "2" (str.at var30 908)))
(assert (= "a" (str.at var49 236)))
(assert (= "s" (str.at var9 205)))
(assert (= "C" (str.at var6 194)))
(assert (= "1" (str.at var26 778)))
(assert (= "d" (str.at var11 986)))
(assert (= "3" (str.at var29 441)))
(assert (= ":" (str.at var36 719)))
(assert (= "g" (str.at var6 482)))
(assert (= "Q" (str.at var26 511)))
(assert (= "[" (str.at var49 112)))
(assert (= """" (str.at var17 542)))
(assert (= "g" (str.at var43 7)))
(assert (= "P" (str.at var28 852)))
(assert (= "Y" (str.at var33 227)))
(assert (= "r" (str.at var7 77)))
(assert (= "b" (str.at var53 401)))
(assert (= "j" (str.at var41 106)))
(assert (= "U" (str.at var59 797)))
(assert (= "R" (str.at var28 479)))
(assert (= "O" (str.at var54 1)))
(assert (= "x" (str.at var25 686)))
(assert (= "k" (str.at var31 440)))
(assert (= "Q" (str.at var30 913)))
(assert (= "^" (str.at var8 415)))
(assert (= ">" (str.at var3 892)))
(assert (= "o" (str.at var58 723)))
(assert (= "s" (str.at var55 843)))
(assert (= "H" (str.at var24 765)))
(assert (= "&" (str.at var23 706)))
(assert (= "g" (str.at var56 874)))
(assert (= "7" (str.at var15 714)))
(assert (= "u" (str.at var1 537)))
(assert (= "o" (str.at var38 308)))
(assert (= "G" (str.at var6 939)))
(assert (= "R" (str.at var7 858)))
(assert (= "{" (str.at var9 662)))
(assert (= "n" (str.at var9 6)))
(assert (= "C" (str.at var1 479)))
(assert (= "P" (str.at var46 637)))
(assert (= "!" (str.at var8 73)))
(assert (= "{" (str.at var1 137)))
(assert (= "$" (str.at var14 84)))
(assert (= "&" (str.at var59 605)))
(assert (= "M" (str.at var59 46)))
(assert (= "&" (str.at var37 274)))
(assert (= "I" (str.at var2 730)))
(assert (= "7" (str.at var4 73)))
(assert (= "Z" (str.at var53 365)))
(assert (= "[" (str.at var45 754)))
(assert (= "d" (str.at var7 572)))
(assert (= "]" (str.at var45 186)))
(assert (= "'" (str.at var58 927)))
(assert (= "i" (str.at var56 59)))
(assert (= "5" (str.at var14 256)))
(assert (= "r" (str.at var27 411)))
(assert (= "%" (str.at var14 422)))
(assert (= "E" (str.at var34 106)))
(assert (= "B" (str.at var54 296)))
(assert (= "S" (str.at var52 90)))
(assert (= "V" (str.at var43 938)))
(assert (= "(" (str.at var32 397)))
(assert (= "a" (str.at var2 998)))
(assert (= "I" (str.at var37 496)))
(assert (= "I" (str.at var45 597)))
(assert (= "~" (str.at var3 497)))
(assert (= "#" (str.at var28 951)))
(assert (= "b" (str.at var29 315)))
(assert (= "Q" (str.at var23 15)))
(assert (= "B" (str.at var48 969)))
(assert (= "^" (str.at var9 219)))
(assert (= "," (str.at var56 84)))
(assert (= "+" (str.at var5 597)))
(assert (= "I" (str.at var46 177)))
(assert (= "5" (str.at var46 502)))
(assert (= "+" (str.at var59 834)))
(assert (= "F" (str.at var30 77)))
(assert (= "_" (str.at var2 481)))
(assert (= """" (str.at var28 415)))
(assert (= "f" (str.at var58 13)))
(assert (= "C" (str.at var4 214)))
(assert (= "?" (str.at var28 55)))
(assert (= "J" (str.at var44 259)))
(assert (= "[" (str.at var53 316)))
(assert (= "!" (str.at var37 335)))
(assert (= "U" (str.at var48 814)))
(assert (= ">" (str.at var39 369)))
(assert (= "z" (str.at var26 550)))
(assert (= "T" (str.at var22 712)))
(assert (= "w" (str.at var0 38)))
(assert (= "7" (str.at var44 285)))
(assert (= "z" (str.at var35 882)))
(assert (= "{" (str.at var59 74)))
(assert (= "6" (str.at var27 129)))
(assert (= "e" (str.at var30 499)))
(assert (= "K" (str.at var42 110)))
(assert (= "X" (str.at var27 638)))
(assert (= "f" (str.at var2 419)))
(assert (= "/" (str.at var25 348)))
(assert (= ")" (str.at var42 649)))
(assert (= "^" (str.at var4 164)))
(assert (= "n" (str.at var37 246)))
(assert (= "L" (str.at var28 491)))
(assert (= ">" (str.at var20 494)))
(assert (= "!" (str.at var25 470)))
(assert (= "k" (str.at var12 441)))
(assert (= "{" (str.at var59 802)))
(assert (= "`" (str.at var48 534)))
(assert (= "b" (str.at var0 992)))
(assert (= "X" (str.at var1 541)))
(assert (= "q" (str.at var38 384)))
(assert (= "b" (str.at var28 528)))
(assert (= "&" (str.at var59 975)))
(assert (= "[" (str.at var51 315)))
(assert (= "3" (str.at var7 738)))
(assert (= "?" (str.at var30 69)))
(assert (= "`" (str.at var6 244)))
(assert (= "4" (str.at var26 38)))
(assert (= "P" (str.at var14 32)))
(assert (= "f" (str.at var22 633)))
(assert (= "R" (str.at var57 563)))
(assert (= "4" (str.at var36 790)))
(assert (= "}" (str.at var59 787)))
(assert (= "C" (str.at var60 20)))
(assert (= "#" (str.at var54 58)))
(assert (= "$" (str.at var28 662)))
(assert (= "v" (str.at var35 30)))
(assert (= "6" (str.at var59 664)))
(assert (= "a" (str.at var11 329)))
(assert (= ";" (str.at var11 524)))
(assert (= "w" (str.at var45 235)))
(assert (= "z" (str.at var55 330)))
(assert (= ";" (str.at var30 137)))
(assert (= ":" (str.at var31 456)))
(assert (= "V" (str.at var38 100)))
(assert (= "o" (str.at var12 581)))
(assert (= "L" (str.at var58 699)))
(assert (= "'" (str.at var26 679)))
(assert (= "|" (str.at var10 968)))
(assert (= ">" (str.at var13 618)))
(assert (= "U" (str.at var16 490)))
(assert (= "k" (str.at var51 42)))
(assert (= "G" (str.at var29 914)))
(assert (= "~" (str.at var3 212)))
(assert (= "'" (str.at var57 180)))
(assert (= "F" (str.at var24 314)))
(assert (= "V" (str.at var26 673)))
(assert (= "H" (str.at var37 219)))
(assert (= "2" (str.at var38 530)))
(assert (= """" (str.at var26 859)))
(assert (= "Z" (str.at var48 867)))
(assert (= "u" (str.at var46 493)))
(assert (= "~" (str.at var4 480)))
(assert (= "D" (str.at var56 481)))
(assert (= "V" (str.at var53 706)))
(assert (= "'" (str.at var49 228)))
(assert (= "t" (str.at var4 423)))
(assert (= "R" (str.at var27 637)))
(check-sat)
(get-model)